
se = 80; % nombre de sessions
gr = 40; % nombre de grups de treball
cl = 12; % nombre de slots
minPapersPerSlot = 3; % minim nombre d'articles per sessio i slot
maxSesionsPar = 20; % maxim nombre de sessions paraleles

npMax = [4, 6, 6, 6, 3, 3, 5, 6, 5, 4, 5, 4]; % nombre maxim de papers per slot

np = [3, 16, 3, 17, 5, 8, 9, 15, 18, 20, 11, 12, 9, 13, 8, 3, 16, 5, 14, 7, 7, 12, 8, 3, 6, 4, 7, 17, 12, 12, 10, 3, 4, 10, 3, 13, 16, 10, 18, 17, 5, 3, 12, 4, 19, 11, 9, 15, 6, 7, 12, 18, 17, 13, 15, 10, 19, 12, 13, 7, 3, 9, 13, 14, 3, 3, 8, 12, 3, 6, 5, 10, 10, 7, 14, 12, 14, 3, 8, 10]; % nombre de papers acceptats a cada sessio

WG = [ {1}, {}, {2}, {}, {}, {3}, {4}, {5,6,7}, {}, {8,9}, {10}, {11,12,13}, {14,15}, {16}, {17,18}, {19,20}, {}, {21}, {}, {}, {22,23}, {24,25}, {26}, {27}, {}, {}, {28}, {}, {}, {29}, {}, {30,31,32}, {33}, {34,35,36}, {37}, {38}, {}, {}, {39,40}, {1,2,3}, {4}, {5,6}, {}, {7}, {8}, {9,10}, {11}, {12}, {}, {13}, {14}, {}, {15,16,17}, {18}, {19}, {20}, {}, {21,22}, {}, {23}, {24}, {}, {}, {25,26,27}, {28,29,30}, {31}, {32,33}, {}, {}, {}, {34}, {35,36,37}, {}, {38,39}, {}, {40}, {1}, {}, {2}, {} ]; % grups per sessio

